100
1000
371
365
363
354
352
351
346
345
345
339
338
338
334
332
329
327
322
321
319
314
305
302
299
296
294
288
285
284
282
281
277
276
269
268
262
257
252
250
250
248
245
243
236
234
232
230
229
224
220
214
211
209
206
198
195
192
188
177
171
163
158
157
157
147
142
140
124
118
111
111
111
111
102
93
88
87
86
82
82
80
78
78
76
75
72
69
65
63
54
51
50
49
43
41
39
36
29
29
27
25
